c Reduced graph for 5-FullIns_3_3 generated by Cyril Grelier
p edge 46 197
e 1 2
e 1 3
e 1 4
e 1 7
e 1 8
e 1 9
e 1 10
e 1 11
e 1 24
e 1 25
e 1 26
e 1 27
e 1 28
e 1 29
e 1 30
e 1 33
e 1 34
e 1 35
e 1 36
e 2 17
e 2 18
e 2 19
e 2 20
e 2 21
e 2 22
e 2 23
e 2 26
e 2 27
e 2 28
e 2 29
e 2 30
e 2 37
e 2 38
e 2 43
e 2 44
e 2 45
e 2 46
e 3 6
e 3 12
e 3 13
e 3 14
e 3 15
e 3 16
e 3 18
e 3 19
e 3 20
e 3 21
e 3 22
e 3 23
e 3 31
e 3 32
e 3 37
e 3 38
e 4 5
e 4 12
e 4 13
e 4 14
e 4 15
e 4 16
e 4 17
e 4 19
e 4 20
e 4 21
e 4 22
e 4 23
e 4 39
e 4 40
e 4 43
e 4 44
e 5 6
e 5 7
e 5 8
e 5 9
e 5 10
e 5 11
e 5 12
e 5 13
e 5 14
e 5 15
e 5 16
e 5 24
e 5 25
e 5 31
e 5 32
e 6 7
e 6 8
e 6 9
e 6 10
e 6 11
e 6 12
e 6 13
e 6 14
e 6 15
e 6 16
e 6 33
e 6 34
e 6 39
e 6 40
e 7 13
e 7 14
e 7 15
e 7 16
e 7 17
e 7 18
e 7 20
e 7 21
e 7 22
e 7 23
e 8 12
e 8 14
e 8 15
e 8 16
e 8 17
e 8 18
e 8 19
e 8 21
e 8 22
e 8 23
e 9 12
e 9 13
e 9 15
e 9 16
e 9 17
e 9 18
e 9 19
e 9 20
e 9 22
e 9 23
e 10 12
e 10 13
e 10 14
e 10 16
e 10 17
e 10 18
e 10 19
e 10 20
e 10 21
e 10 23
e 11 12
e 11 13
e 11 14
e 11 15
e 11 17
e 11 18
e 11 19
e 11 20
e 11 21
e 11 22
e 12 13
e 12 14
e 12 15
e 12 16
e 13 14
e 13 15
e 13 16
e 14 15
e 14 16
e 15 16
e 17 24
e 17 25
e 18 33
e 18 34
e 24 40
e 24 42
e 24 44
e 24 46
e 25 39
e 25 41
e 25 43
e 25 45
e 26 27
e 26 28
e 26 29
e 26 30
e 27 28
e 27 29
e 27 30
e 28 29
e 28 30
e 29 30
e 31 34
e 31 36
e 31 40
e 31 42
e 32 33
e 32 35
e 32 39
e 32 41
e 33 38
e 34 37
e 35 38
e 35 42
e 35 46
e 36 37
e 36 41
e 36 45
e 41 42
